Using license file /home/anupa/gurobi.lic
Academic license - for non-commercial use only
Changed value of parameter NonConvex to 2
   Prev: -1  Min: -1  Max: 2  Default: -1
Changed value of parameter TimeLimit to 120.0
   Prev: inf  Min: 0.0  Max: inf  Default: inf

Gurobi Optimizer version 9.0.0 build v9.0.0rc2 (linux64)
Optimize a model with 129 rows, 116 columns and 280 nonzeros
Model fingerprint: 0xee534018
Model has 3 quadratic constraints
Model has 3 general constraints
Variable types: 114 continuous, 2 integer (0 binary)
Coefficient statistics:
  Matrix range     [1e-04, 5e+03]
  QMatrix range    [1e+00, 1e+00]
  QLMatrix range   [1e+00, 1e+00]
  Objective range  [1e+00, 1e+00]
  Bounds range     [1e+00, 3e+04]
  RHS range        [1e+00, 5e+01]

---------------------------------------------------------------------------
Multi-objectives: starting optimization with 2 objectives ... 
---------------------------------------------------------------------------

Multi-objectives: applying initial presolve ...
---------------------------------------------------------------------------

Presolve removed 72 rows and 52 columns
Presolve time: 0.00s
Presolved: 69 rows and 65 columns
---------------------------------------------------------------------------

Multi-objectives: optimize objective 1 (ns) ...
---------------------------------------------------------------------------

Presolve removed 49 rows and 48 columns
Presolve time: 0.00s
Presolved: 32 rows, 18 columns, 85 nonzeros
Presolved model has 1 SOS constraint(s)
Presolved model has 3 bilinear constraint(s)
Variable types: 14 continuous, 4 integer (2 binary)

Root relaxation: objective 1.020408e+01, 8 iterations, 0.00 seconds

    Nodes    |    Current Node    |     Objective Bounds      |     Work
 Expl Unexpl |  Obj  Depth IntInf | Incumbent    BestBd   Gap | It/Node Time

     0     0   10.20408    0    1          -   10.20408      -     -    0s
     0     0   10.20797    0    4          -   10.20797      -     -    0s
     0     0   10.91677    0    4          -   10.91677      -     -    0s
     0     0   11.05712    0    4          -   11.05712      -     -    0s
     0     0   11.08582    0    4          -   11.08582      -     -    0s
     0     0   11.09495    0    2          -   11.09495      -     -    0s
     0     0   11.09495    0    2          -   11.09495      -     -    0s
H    0     0                      11.4285714   11.09495  2.92%     -    0s
     0     2   11.12571    0    4   11.42857   11.12571  2.65%     -    0s

Cutting planes:
  MIR: 1
  RLT: 1

Explored 3 nodes (20 simplex iterations) in 0.00 seconds
Thread count was 12 (of 12 available processors)

Solution count 1: 11.4286 

Optimal solution found (tolerance 1.00e-04)
Best objective 1.142857142857e+01, best bound 1.142857142857e+01, gap 0.0000%
---------------------------------------------------------------------------

Multi-objectives: optimize objective 2 (res) ...
---------------------------------------------------------------------------


Loaded user MIP start with objective 312.177

Presolve removed 57 rows and 53 columns
Presolve time: 0.00s
Presolved: 17 rows, 12 columns, 48 nonzeros
Presolved model has 1 bilinear constraint(s)
Variable types: 10 continuous, 2 integer (2 binary)

Root relaxation: objective 1.986446e+02, 4 iterations, 0.00 seconds

    Nodes    |    Current Node    |     Objective Bounds      |     Work
 Expl Unexpl |  Obj  Depth IntInf | Incumbent    BestBd   Gap | It/Node Time

     0     0  198.64459    0    1  312.17673  198.64459  36.4%     -    0s
     0     0  198.64459    0    1  312.17673  198.64459  36.4%     -    0s
     0     2  198.64459    0    1  312.17673  198.64459  36.4%     -    0s
*    1     0               1     199.9643013  198.64459  0.66%   2.0    0s
*    2     0               1     199.7802251  199.78023  0.00%   1.0    0s

Explored 3 nodes (6 simplex iterations) in 0.01 seconds
Thread count was 12 (of 12 available processors)

Solution count 3: 199.78 199.964 312.177 

Optimal solution found (tolerance 1.00e-04)
Best objective 1.997802251090e+02, best bound 1.997802251090e+02, gap 0.0000%

---------------------------------------------------------------------------
Multi-objectives: solved in 0.01 seconds, solution count 3

--------------------------------------------------
Model update took: 1.9788742065429688e-05 seconds
Model optimize took: 0.006808280944824219 seconds
--------------------------------------------------

Solution quality statistics for model netmon :
  Maximum violation:
    Bound       : 0.00000000e+00
    Constraint  : 8.23773755e-07
    Integrality : 0.00000000e+00

Throughput: 83.32500083325063 Mpps, ns per packet: 12.00119999999991
Resources: 199.780225108974

Sketch (0) (cm: eps0: 6.25e-06, del0: 0.05, min_mem: 1698.9296875)
Par: 1, Rows: 3
0.060    0.060    0.060    0.060    0.060    0.060    0.060    0.060    0.060    0.060    0.060    0.060    0.060    0.060    0.060    0.060    0.060    0.060    0.060    0.060    0.879    
Total frac: 2.088

Device (0) p4_0:
Rows total: 0.18128144144645875
Mem total: 307.98442266618173
Throughput: 148.0

Device (1) p4_1:
Rows total: 0.18128144144645875
Mem total: 307.98442266618173
Throughput: 148.0

Device (2) p4_2:
Rows total: 0.18128144144645875
Mem total: 307.98442266618173
Throughput: 148.0

Device (3) p4_3:
Rows total: 0.18128144144645875
Mem total: 307.98442266618173
Throughput: 148.0

Device (4) p4_4:
Rows total: 0.18128144144645875
Mem total: 307.98442266618173
Throughput: 148.0

Device (5) p4_5:
Rows total: 0.18128144144645875
Mem total: 307.98442266618173
Throughput: 148.0

Device (6) p4_6:
Rows total: 0.18128144144645875
Mem total: 307.98442266618173
Throughput: 148.0

Device (7) p4_7:
Rows total: 0.18128144144645875
Mem total: 307.98442266618173
Throughput: 148.0

Device (8) p4_8:
Rows total: 0.18128144144645875
Mem total: 307.98442266618173
Throughput: 148.0

Device (9) p4_9:
Rows total: 0.18128144144645875
Mem total: 307.98442266618173
Throughput: 148.0

Device (10) p4_10:
Rows total: 0.18128144144645875
Mem total: 307.98442266618173
Throughput: 148.0

Device (11) p4_11:
Rows total: 0.18128144144645875
Mem total: 307.98442266618173
Throughput: 148.0

Device (12) p4_12:
Rows total: 0.18128144144645875
Mem total: 307.98442266618173
Throughput: 148.0

Device (13) p4_13:
Rows total: 0.18128144144645875
Mem total: 307.98442266618173
Throughput: 148.0

Device (14) p4_14:
Rows total: 0.18128144144645875
Mem total: 307.98442266618173
Throughput: 148.0

Device (15) p4_15:
Rows total: 0.18128144144645875
Mem total: 307.98442266618173
Throughput: 148.0

Device (16) p4_16:
Rows total: 0.18128144144645875
Mem total: 307.98442266618173
Throughput: 148.0

Device (17) p4_17:
Rows total: 0.18128144144645875
Mem total: 307.98442266618173
Throughput: 148.0

Device (18) p4_18:
Rows total: 0.18128144144645875
Mem total: 307.98442266618173
Throughput: 148.0

Device (19) p4_19:
Rows total: 0.18128144144645875
Mem total: 307.98442266618173
Throughput: 148.0

Device (20) cpu_1:
cores_sketch: 2.0, cores_dpdk: 5.0
Rows total: 2.6374371171070825
Mem total: 4480.820217167637
Throughput: 83.32500083325063
--------------------------------------------------
